Total weight: 1252.7294818624016
Route 1: 0 27 69 31 10 62 88 0 
Route 2: 0 40 21 73 74 72 26 0 
Route 3: 0 53 58 13 94 96 6 0 
Route 4: 0 52 82 7 47 36 49 64 0 
Route 5: 0 2 87 100 91 37 98 0 
Route 6: 0 70 30 51 9 81 33 79 29 68 80 0 
Route 7: 0 95 92 59 99 93 5 60 89 0 
Route 8: 0 48 19 11 63 90 32 20 0 
Route 9: 0 83 17 61 14 43 42 97 0 
Route 10: 0 28 76 77 3 50 1 0 
Route 11: 0 57 15 41 22 75 23 67 39 56 0 
Route 12: 0 12 4 25 55 24 54 0 
Route 13: 0 18 8 46 45 0 
Route 14: 0 85 16 44 38 86 84 0 
Route 15: 0 78 34 71 35 65 66 0 
